(set-info :smt-lib-version 2.6)
(set-logic QF_NIA)
(set-info :source |
Generated by: Cristina Borralleras, Daniel Larraz, Albert Oliveras, Enric Rodriguez-Carbonell, Albert Rubio
Generated on: 2017-04-27
Generator: VeryMax
Application: Termination proving
Target solver: barcelogic
|)
(set-info :license "https://creativecommons.org/licenses/by/4.0/")
(set-info :category "industrial")
(set-info :status sat)
(declare-fun Nl107a_203^01 () Int)
(declare-fun Nl107h_32^01 () Int)
(declare-fun Nl107i_27^01 () Int)
(declare-fun Nl107i_30^01 () Int)
(declare-fun Nl107l_188^01 () Int)
(declare-fun Nl107l_29^01 () Int)
(declare-fun Nl107l_69^01 () Int)
(declare-fun Nl107tp_35^01 () Int)
(declare-fun Nl107a_203^02 () Int)
(declare-fun Nl107h_32^02 () Int)
(declare-fun Nl107i_27^02 () Int)
(declare-fun Nl107i_30^02 () Int)
(declare-fun Nl107l_188^02 () Int)
(declare-fun Nl107l_29^02 () Int)
(declare-fun Nl107l_69^02 () Int)
(declare-fun Nl107tp_35^02 () Int)
(declare-fun lam0n0 () Int)
(declare-fun lam0n1 () Int)
(declare-fun lam0n2 () Int)
(declare-fun lam0n3 () Int)
(declare-fun lam0n4 () Int)
(declare-fun lam0n5 () Int)
(declare-fun lam0n18 () Int)
(declare-fun lam0n19 () Int)
(declare-fun lam0n15 () Int)
(declare-fun lam0n16 () Int)
(declare-fun lam0n17 () Int)
(declare-fun Nl107CT1 () Int)
(declare-fun Nl107CT2 () Int)
(declare-fun lam0n6 () Int)
(declare-fun lam0n7 () Int)
(declare-fun lam0n8 () Int)
(declare-fun lam0n9 () Int)
(declare-fun lam0n10 () Int)
(declare-fun lam0n11 () Int)
(declare-fun lam0n12 () Int)
(declare-fun lam0n13 () Int)
(declare-fun lam0n14 () Int)
(declare-fun lam1n0 () Int)
(declare-fun lam1n1 () Int)
(declare-fun lam1n2 () Int)
(declare-fun lam1n3 () Int)
(declare-fun lam1n4 () Int)
(declare-fun lam1n5 () Int)
(declare-fun lam1n18 () Int)
(declare-fun lam1n19 () Int)
(declare-fun lam1n15 () Int)
(declare-fun lam1n16 () Int)
(declare-fun lam1n17 () Int)
(declare-fun lam1n6 () Int)
(declare-fun lam1n7 () Int)
(declare-fun lam1n8 () Int)
(declare-fun lam1n9 () Int)
(declare-fun lam1n10 () Int)
(declare-fun lam1n11 () Int)
(declare-fun lam1n12 () Int)
(declare-fun lam1n13 () Int)
(declare-fun lam1n14 () Int)
(declare-fun lam2n0 () Int)
(declare-fun lam2n1 () Int)
(declare-fun lam2n2 () Int)
(declare-fun lam2n3 () Int)
(declare-fun lam2n4 () Int)
(declare-fun lam2n5 () Int)
(declare-fun lam2n18 () Int)
(declare-fun lam2n19 () Int)
(declare-fun lam2n15 () Int)
(declare-fun lam2n16 () Int)
(declare-fun lam2n17 () Int)
(declare-fun lam2n6 () Int)
(declare-fun lam2n7 () Int)
(declare-fun lam2n8 () Int)
(declare-fun lam2n9 () Int)
(declare-fun lam2n10 () Int)
(declare-fun lam2n11 () Int)
(declare-fun lam2n12 () Int)
(declare-fun lam2n13 () Int)
(declare-fun lam2n14 () Int)
(declare-fun lam3n0 () Int)
(declare-fun lam3n1 () Int)
(declare-fun lam3n2 () Int)
(declare-fun lam3n3 () Int)
(declare-fun lam3n16 () Int)
(declare-fun lam3n17 () Int)
(declare-fun lam3n18 () Int)
(declare-fun lam3n4 () Int)
(declare-fun lam3n5 () Int)
(declare-fun lam3n6 () Int)
(declare-fun lam3n7 () Int)
(declare-fun lam3n8 () Int)
(declare-fun lam3n9 () Int)
(declare-fun lam3n10 () Int)
(declare-fun lam3n11 () Int)
(declare-fun lam3n12 () Int)
(declare-fun lam3n13 () Int)
(declare-fun lam3n14 () Int)
(declare-fun lam3n15 () Int)
(declare-fun lam4n0 () Int)
(declare-fun lam4n1 () Int)
(declare-fun lam4n2 () Int)
(declare-fun lam4n3 () Int)
(declare-fun lam4n16 () Int)
(declare-fun lam4n17 () Int)
(declare-fun lam4n18 () Int)
(declare-fun lam4n4 () Int)
(declare-fun lam4n5 () Int)
(declare-fun lam4n6 () Int)
(declare-fun lam4n7 () Int)
(declare-fun lam4n8 () Int)
(declare-fun lam4n9 () Int)
(declare-fun lam4n10 () Int)
(declare-fun lam4n11 () Int)
(declare-fun lam4n12 () Int)
(declare-fun lam4n13 () Int)
(declare-fun lam4n14 () Int)
(declare-fun lam4n15 () Int)
(declare-fun l_188^0 () Int)
(declare-fun undef67 () Int)
(declare-fun undef111 () Int)
(declare-fun undef81569 () Int)
(declare-fun i_27^0 () Int)
(declare-fun undef18378 () Int)
(declare-fun tp_35^0 () Int)
(declare-fun undef81604 () Int)
(declare-fun undef52 () Int)
(declare-fun undef88 () Int)
(declare-fun undef81596 () Int)
(declare-fun undef109 () Int)
(declare-fun undef18328 () Int)
(declare-fun undef18386 () Int)
(declare-fun undef18387 () Int)
(declare-fun undef81533 () Int)
(declare-fun undef81568 () Int)
(declare-fun undef81560 () Int)
(declare-fun undef81600 () Int)
(declare-fun undef81617 () Int)
(declare-fun l_69^0 () Int)
(declare-fun a_203^0 () Int)
(declare-fun undef81607 () Int)
(declare-fun lam5n0 () Int)
(declare-fun lam5n1 () Int)
(declare-fun lam5n2 () Int)
(declare-fun lam5n3 () Int)
(declare-fun lam5n4 () Int)
(declare-fun lam5n14 () Int)
(declare-fun lam5n15 () Int)
(declare-fun lam5n12 () Int)
(declare-fun lam5n13 () Int)
(declare-fun lam5n5 () Int)
(declare-fun lam5n6 () Int)
(declare-fun lam5n7 () Int)
(declare-fun lam5n8 () Int)
(declare-fun lam5n9 () Int)
(declare-fun lam5n10 () Int)
(declare-fun lam5n11 () Int)
(declare-fun lam6n0 () Int)
(declare-fun lam6n1 () Int)
(declare-fun lam6n2 () Int)
(declare-fun lam6n3 () Int)
(declare-fun lam6n4 () Int)
(declare-fun lam6n14 () Int)
(declare-fun lam6n15 () Int)
(declare-fun lam6n12 () Int)
(declare-fun lam6n13 () Int)
(declare-fun lam6n5 () Int)
(declare-fun lam6n6 () Int)
(declare-fun lam6n7 () Int)
(declare-fun lam6n8 () Int)
(declare-fun lam6n9 () Int)
(declare-fun lam6n10 () Int)
(declare-fun lam6n11 () Int)
(assert ( and ( <= ( - 1 ) Nl107a_203^01 ) ( <= Nl107a_203^01 1 ) ( <= ( - 1 ) Nl107h_32^01 ) ( <= Nl107h_32^01 1 ) ( <= ( - 1 ) Nl107i_27^01 ) ( <= Nl107i_27^01 1 ) ( <= ( - 1 ) Nl107i_30^01 ) ( <= Nl107i_30^01 1 ) ( <= ( - 1 ) Nl107l_188^01 ) ( <= Nl107l_188^01 1 ) ( <= ( - 1 ) Nl107l_29^01 ) ( <= Nl107l_29^01 1 ) ( <= ( - 1 ) Nl107l_69^01 ) ( <= Nl107l_69^01 1 ) ( <= ( - 1 ) Nl107tp_35^01 ) ( <= Nl107tp_35^01 1 ) ( <= ( - 1 ) Nl107a_203^02 ) ( <= Nl107a_203^02 1 ) ( <= ( - 1 ) Nl107h_32^02 ) ( <= Nl107h_32^02 1 ) ( <= ( - 1 ) Nl107i_27^02 ) ( <= Nl107i_27^02 1 ) ( <= ( - 1 ) Nl107i_30^02 ) ( <= Nl107i_30^02 1 ) ( <= ( - 1 ) Nl107l_188^02 ) ( <= Nl107l_188^02 1 ) ( <= ( - 1 ) Nl107l_29^02 ) ( <= Nl107l_29^02 1 ) ( <= ( - 1 ) Nl107l_69^02 ) ( <= Nl107l_69^02 1 ) ( <= ( - 1 ) Nl107tp_35^02 ) ( <= Nl107tp_35^02 1 ) ))
(assert ( or ( and ( >= lam0n0 0 ) ( >= lam0n1 0 ) ( >= lam0n2 0 ) ( >= lam0n3 0 ) ( >= lam0n4 0 ) ( >= lam0n5 0 ) ( >= lam0n18 0 ) ( >= lam0n19 0 ) ( > ( + ( * 1 lam0n2 ) ( * 1 lam0n3 ) ( * 1 lam0n4 ) ( * 2 lam0n5 ) ( * 1 lam0n15 ) ( * 1 lam0n16 ) ( * 1 lam0n17 ) ( * Nl107CT1 lam0n18 ) ( * Nl107CT2 lam0n19 ) ( - 1 ) ) 0 ) ( = ( + ( * Nl107a_203^01 lam0n18 ) ( * Nl107a_203^02 lam0n19 ) ) 0 ) ( = ( + ( * Nl107h_32^01 lam0n18 ) ( * Nl107h_32^02 lam0n19 ) ) 0 ) ( = ( + ( * ( - 1 ) lam0n5 ) ( * Nl107i_27^01 lam0n18 ) ( * Nl107i_27^02 lam0n19 ) ) 0 ) ( = ( + ( * 1 lam0n2 ) ( * 1 lam0n15 ) ( * Nl107i_30^01 lam0n18 ) ( * Nl107i_30^02 lam0n19 ) ) 0 ) ( = ( + ( * ( - 1 ) lam0n3 ) ( * Nl107l_188^01 lam0n18 ) ( * Nl107l_188^02 lam0n19 ) ) 0 ) ( = ( + ( * ( - 1 ) lam0n2 ) ( * ( - 1 ) lam0n4 ) ( * 1 lam0n6 ) ( * Nl107l_29^01 lam0n18 ) ( * Nl107l_29^02 lam0n19 ) ) 0 ) ( = ( + ( * ( - 1 ) lam0n1 ) ( * 1 lam0n16 ) ( * Nl107l_69^01 lam0n18 ) ( * Nl107l_69^02 lam0n19 ) ) 0 ) ( = ( + ( * 1 lam0n7 ) ( * Nl107tp_35^01 lam0n18 ) ( * Nl107tp_35^02 lam0n19 ) ) 0 ) ( = ( + ( * 1 lam0n8 ) ( * 1 lam0n9 ) ) 0 ) ( = ( + ( * ( - 1 ) lam0n5 ) ( * ( - 1 ) lam0n8 ) ) 0 ) ( = ( + ( * ( - 1 ) lam0n9 ) ( * 1 lam0n10 ) ) 0 ) ( = ( * ( - 1 ) lam0n10 ) 0 ) ( = ( + ( * 1 lam0n11 ) ( * 1 lam0n12 ) ) 0 ) ( = ( + ( * 1 lam0n4 ) ( * 1 lam0n17 ) ) 0 ) ( = ( + ( * ( - 1 ) lam0n15 ) ( * ( - 1 ) lam0n17 ) ) 0 ) ( = ( + ( * 1 lam0n13 ) ( * ( - 1 ) lam0n16 ) ) 0 ) ( = ( * ( - 1 ) lam0n13 ) 0 ) ( = ( * ( - 1 ) lam0n6 ) 0 ) ( = ( + ( * ( - 1 ) lam0n11 ) ( * 1 lam0n14 ) ) 0 ) ( = ( + ( * ( - 1 ) lam0n7 ) ( * ( - 1 ) lam0n12 ) ( * ( - 1 ) lam0n14 ) ) 0 ) ) ( and ( >= lam1n0 0 ) ( >= lam1n1 0 ) ( >= lam1n2 0 ) ( >= lam1n3 0 ) ( >= lam1n4 0 ) ( >= lam1n5 0 ) ( >= lam1n18 0 ) ( >= lam1n19 0 ) ( > ( + ( * 1 lam1n2 ) ( * 1 lam1n3 ) ( * 1 lam1n4 ) ( * 2 lam1n5 ) ( * 1 lam1n15 ) ( * 1 lam1n16 ) ( * 1 lam1n17 ) ( * Nl107CT1 lam1n18 ) ( * Nl107CT2 lam1n19 ) ( - 1 ( + ( + ( + ( + Nl107CT1 ( * Nl107h_32^01 0 ) ) ( * Nl107i_30^01 0 ) ) ( * Nl107l_69^01 0 ) ) ( * Nl107tp_35^01 0 ) ) ) ) 0 ) ( = ( + ( * Nl107a_203^01 lam1n18 ) ( * Nl107a_203^02 lam1n19 ) ( - ( + 0 Nl107a_203^01 ) ) ) 0 ) ( = ( + ( * Nl107h_32^01 lam1n18 ) ( * Nl107h_32^02 lam1n19 ) ) 0 ) ( = ( + ( * ( - 1 ) lam1n5 ) ( * Nl107i_27^01 lam1n18 ) ( * Nl107i_27^02 lam1n19 ) ( - ( + 0 Nl107i_27^01 ) ) ) 0 ) ( = ( + ( * 1 lam1n2 ) ( * 1 lam1n15 ) ( * Nl107i_30^01 lam1n18 ) ( * Nl107i_30^02 lam1n19 ) ) 0 ) ( = ( + ( * ( - 1 ) lam1n3 ) ( * Nl107l_188^01 lam1n18 ) ( * Nl107l_188^02 lam1n19 ) ( - ( + 0 Nl107l_188^01 ) ) ) 0 ) ( = ( + ( * ( - 1 ) lam1n2 ) ( * ( - 1 ) lam1n4 ) ( * 1 lam1n6 ) ( * Nl107l_29^01 lam1n18 ) ( * Nl107l_29^02 lam1n19 ) ( - ( + 0 Nl107l_29^01 ) ) ) 0 ) ( = ( + ( * ( - 1 ) lam1n1 ) ( * 1 lam1n16 ) ( * Nl107l_69^01 lam1n18 ) ( * Nl107l_69^02 lam1n19 ) ) 0 ) ( = ( + ( * 1 lam1n7 ) ( * Nl107tp_35^01 lam1n18 ) ( * Nl107tp_35^02 lam1n19 ) ) 0 ) ( = ( + ( * 1 lam1n8 ) ( * 1 lam1n9 ) ) 0 ) ( = ( + ( * ( - 1 ) lam1n5 ) ( * ( - 1 ) lam1n8 ) ) 0 ) ( = ( + ( * ( - 1 ) lam1n9 ) ( * 1 lam1n10 ) ) 0 ) ( = ( * ( - 1 ) lam1n10 ) 0 ) ( = ( + ( * 1 lam1n11 ) ( * 1 lam1n12 ) ( - ( + 0 ( * Nl107h_32^01 1 ) ) ) ) 0 ) ( = ( + ( * 1 lam1n4 ) ( * 1 lam1n17 ) ) 0 ) ( = ( + ( * ( - 1 ) lam1n15 ) ( * ( - 1 ) lam1n17 ) ( - ( + 0 ( * Nl107i_30^01 1 ) ) ) ) 0 ) ( = ( + ( * 1 lam1n13 ) ( * ( - 1 ) lam1n16 ) ) 0 ) ( = ( + ( * ( - 1 ) lam1n13 ) ( - ( + 0 ( * Nl107l_69^01 1 ) ) ) ) 0 ) ( = ( * ( - 1 ) lam1n6 ) 0 ) ( = ( + ( * ( - 1 ) lam1n11 ) ( * 1 lam1n14 ) ) 0 ) ( = ( + ( * ( - 1 ) lam1n7 ) ( * ( - 1 ) lam1n12 ) ( * ( - 1 ) lam1n14 ) ) 0 ) ( = ( - ( + 0 ( * Nl107tp_35^01 1 ) ) ) 0 ) ) ))
(assert ( or ( and ( >= lam0n0 0 ) ( >= lam0n1 0 ) ( >= lam0n2 0 ) ( >= lam0n3 0 ) ( >= lam0n4 0 ) ( >= lam0n5 0 ) ( >= lam0n18 0 ) ( >= lam0n19 0 ) ( > ( + ( * 1 lam0n2 ) ( * 1 lam0n3 ) ( * 1 lam0n4 ) ( * 2 lam0n5 ) ( * 1 lam0n15 ) ( * 1 lam0n16 ) ( * 1 lam0n17 ) ( * Nl107CT1 lam0n18 ) ( * Nl107CT2 lam0n19 ) ( - 1 ) ) 0 ) ( = ( + ( * Nl107a_203^01 lam0n18 ) ( * Nl107a_203^02 lam0n19 ) ) 0 ) ( = ( + ( * Nl107h_32^01 lam0n18 ) ( * Nl107h_32^02 lam0n19 ) ) 0 ) ( = ( + ( * ( - 1 ) lam0n5 ) ( * Nl107i_27^01 lam0n18 ) ( * Nl107i_27^02 lam0n19 ) ) 0 ) ( = ( + ( * 1 lam0n2 ) ( * 1 lam0n15 ) ( * Nl107i_30^01 lam0n18 ) ( * Nl107i_30^02 lam0n19 ) ) 0 ) ( = ( + ( * ( - 1 ) lam0n3 ) ( * Nl107l_188^01 lam0n18 ) ( * Nl107l_188^02 lam0n19 ) ) 0 ) ( = ( + ( * ( - 1 ) lam0n2 ) ( * ( - 1 ) lam0n4 ) ( * 1 lam0n6 ) ( * Nl107l_29^01 lam0n18 ) ( * Nl107l_29^02 lam0n19 ) ) 0 ) ( = ( + ( * ( - 1 ) lam0n1 ) ( * 1 lam0n16 ) ( * Nl107l_69^01 lam0n18 ) ( * Nl107l_69^02 lam0n19 ) ) 0 ) ( = ( + ( * 1 lam0n7 ) ( * Nl107tp_35^01 lam0n18 ) ( * Nl107tp_35^02 lam0n19 ) ) 0 ) ( = ( + ( * 1 lam0n8 ) ( * 1 lam0n9 ) ) 0 ) ( = ( + ( * ( - 1 ) lam0n5 ) ( * ( - 1 ) lam0n8 ) ) 0 ) ( = ( + ( * ( - 1 ) lam0n9 ) ( * 1 lam0n10 ) ) 0 ) ( = ( * ( - 1 ) lam0n10 ) 0 ) ( = ( + ( * 1 lam0n11 ) ( * 1 lam0n12 ) ) 0 ) ( = ( + ( * 1 lam0n4 ) ( * 1 lam0n17 ) ) 0 ) ( = ( + ( * ( - 1 ) lam0n15 ) ( * ( - 1 ) lam0n17 ) ) 0 ) ( = ( + ( * 1 lam0n13 ) ( * ( - 1 ) lam0n16 ) ) 0 ) ( = ( * ( - 1 ) lam0n13 ) 0 ) ( = ( * ( - 1 ) lam0n6 ) 0 ) ( = ( + ( * ( - 1 ) lam0n11 ) ( * 1 lam0n14 ) ) 0 ) ( = ( + ( * ( - 1 ) lam0n7 ) ( * ( - 1 ) lam0n12 ) ( * ( - 1 ) lam0n14 ) ) 0 ) ) ( and ( >= lam2n0 0 ) ( >= lam2n1 0 ) ( >= lam2n2 0 ) ( >= lam2n3 0 ) ( >= lam2n4 0 ) ( >= lam2n5 0 ) ( >= lam2n18 0 ) ( >= lam2n19 0 ) ( > ( + ( * 1 lam2n2 ) ( * 1 lam2n3 ) ( * 1 lam2n4 ) ( * 2 lam2n5 ) ( * 1 lam2n15 ) ( * 1 lam2n16 ) ( * 1 lam2n17 ) ( * Nl107CT1 lam2n18 ) ( * Nl107CT2 lam2n19 ) ( - 1 ( + ( + ( + ( + Nl107CT2 ( * Nl107h_32^02 0 ) ) ( * Nl107i_30^02 0 ) ) ( * Nl107l_69^02 0 ) ) ( * Nl107tp_35^02 0 ) ) ) ) 0 ) ( = ( + ( * Nl107a_203^01 lam2n18 ) ( * Nl107a_203^02 lam2n19 ) ( - ( + 0 Nl107a_203^02 ) ) ) 0 ) ( = ( + ( * Nl107h_32^01 lam2n18 ) ( * Nl107h_32^02 lam2n19 ) ) 0 ) ( = ( + ( * ( - 1 ) lam2n5 ) ( * Nl107i_27^01 lam2n18 ) ( * Nl107i_27^02 lam2n19 ) ( - ( + 0 Nl107i_27^02 ) ) ) 0 ) ( = ( + ( * 1 lam2n2 ) ( * 1 lam2n15 ) ( * Nl107i_30^01 lam2n18 ) ( * Nl107i_30^02 lam2n19 ) ) 0 ) ( = ( + ( * ( - 1 ) lam2n3 ) ( * Nl107l_188^01 lam2n18 ) ( * Nl107l_188^02 lam2n19 ) ( - ( + 0 Nl107l_188^02 ) ) ) 0 ) ( = ( + ( * ( - 1 ) lam2n2 ) ( * ( - 1 ) lam2n4 ) ( * 1 lam2n6 ) ( * Nl107l_29^01 lam2n18 ) ( * Nl107l_29^02 lam2n19 ) ( - ( + 0 Nl107l_29^02 ) ) ) 0 ) ( = ( + ( * ( - 1 ) lam2n1 ) ( * 1 lam2n16 ) ( * Nl107l_69^01 lam2n18 ) ( * Nl107l_69^02 lam2n19 ) ) 0 ) ( = ( + ( * 1 lam2n7 ) ( * Nl107tp_35^01 lam2n18 ) ( * Nl107tp_35^02 lam2n19 ) ) 0 ) ( = ( + ( * 1 lam2n8 ) ( * 1 lam2n9 ) ) 0 ) ( = ( + ( * ( - 1 ) lam2n5 ) ( * ( - 1 ) lam2n8 ) ) 0 ) ( = ( + ( * ( - 1 ) lam2n9 ) ( * 1 lam2n10 ) ) 0 ) ( = ( * ( - 1 ) lam2n10 ) 0 ) ( = ( + ( * 1 lam2n11 ) ( * 1 lam2n12 ) ( - ( + 0 ( * Nl107h_32^02 1 ) ) ) ) 0 ) ( = ( + ( * 1 lam2n4 ) ( * 1 lam2n17 ) ) 0 ) ( = ( + ( * ( - 1 ) lam2n15 ) ( * ( - 1 ) lam2n17 ) ( - ( + 0 ( * Nl107i_30^02 1 ) ) ) ) 0 ) ( = ( + ( * 1 lam2n13 ) ( * ( - 1 ) lam2n16 ) ) 0 ) ( = ( + ( * ( - 1 ) lam2n13 ) ( - ( + 0 ( * Nl107l_69^02 1 ) ) ) ) 0 ) ( = ( * ( - 1 ) lam2n6 ) 0 ) ( = ( + ( * ( - 1 ) lam2n11 ) ( * 1 lam2n14 ) ) 0 ) ( = ( + ( * ( - 1 ) lam2n7 ) ( * ( - 1 ) lam2n12 ) ( * ( - 1 ) lam2n14 ) ) 0 ) ( = ( - ( + 0 ( * Nl107tp_35^02 1 ) ) ) 0 ) ) ))
(assert ( and ( not ( <= l_188^0 0 ) ) ( <= ( + 1 ( * ( - 1 ) undef67 ) undef111 ) 0 ) ( <= ( + 1 ( * ( - 1 ) undef67 ) undef81569 ) 0 ) ( not ( <= ( + ( - 1 ) i_27^0 undef18378 ) 0 ) ) ( = ( + tp_35^0 ( * ( - 1 ) undef81604 ) ) 0 ) ( = undef52 0 ) ( = ( + undef67 ( * ( - 1 ) undef88 ) ) 0 ) ( = ( + ( * ( - 1 ) undef67 ) undef81596 ) 0 ) ( = ( + undef88 ( * ( - 1 ) undef109 ) ) 0 ) ( = ( + undef18328 ( * ( - 1 ) undef18378 ) ) 0 ) ( = ( + undef18328 ( * ( - 1 ) undef18386 ) ) 0 ) ( = ( + undef18386 ( * ( - 1 ) undef18387 ) ) 0 ) ( = ( + undef81533 ( * ( - 1 ) undef81568 ) ) 0 ) ( = ( + undef81560 ( * ( - 1 ) undef81600 ) ) 0 ) ( = ( + undef81560 ( * ( - 1 ) undef81604 ) ) 0 ) ( = ( + undef81600 ( * ( - 1 ) undef81604 ) ) 0 ) ( = ( + 1 undef111 ( * ( - 1 ) undef81617 ) ) 0 ) ( = ( + 1 ( * ( - 1 ) l_69^0 ) ) 0 ) ( = ( + ( - 1 ) undef81568 ( * ( - 1 ) undef81569 ) ) 0 ) ( <= ( + ( + ( + ( + ( + Nl107CT1 ( * Nl107h_32^01 0 ) ) ( * Nl107i_30^01 0 ) ) ( * Nl107l_29^01 0 ) ) ( * Nl107tp_35^01 0 ) ) ( * ( + 0 Nl107a_203^01 ) a_203^0 ) ( * ( + 0 Nl107i_27^01 ) i_27^0 ) ( * ( + 0 Nl107l_188^01 ) l_188^0 ) ( * ( + 0 Nl107l_69^01 ) l_69^0 ) ( * ( + 0 ( * Nl107l_29^01 1 ) ) undef67 ) ( * ( + 0 ( * Nl107h_32^01 1 ) ) undef81560 ) ( * ( + 0 ( * Nl107i_30^01 1 ) ) undef81568 ) ( * ( + 0 ( * Nl107tp_35^01 1 ) ) undef81607 ) ) 0 ) ( <= ( + ( + ( + ( + ( + Nl107CT2 ( * Nl107h_32^02 0 ) ) ( * Nl107i_30^02 0 ) ) ( * Nl107l_29^02 0 ) ) ( * Nl107tp_35^02 0 ) ) ( * ( + 0 Nl107a_203^02 ) a_203^0 ) ( * ( + 0 Nl107i_27^02 ) i_27^0 ) ( * ( + 0 Nl107l_188^02 ) l_188^0 ) ( * ( + 0 Nl107l_69^02 ) l_69^0 ) ( * ( + 0 ( * Nl107l_29^02 1 ) ) undef67 ) ( * ( + 0 ( * Nl107h_32^02 1 ) ) undef81560 ) ( * ( + 0 ( * Nl107i_30^02 1 ) ) undef81568 ) ( * ( + 0 ( * Nl107tp_35^02 1 ) ) undef81607 ) ) 0 ) ))
(assert ( or ( or ( and ( >= lam5n0 0 ) ( >= lam5n1 0 ) ( >= lam5n2 0 ) ( >= lam5n3 0 ) ( >= lam5n4 0 ) ( >= lam5n14 0 ) ( >= lam5n15 0 ) ( > ( + ( * 1 lam5n3 ) ( * 1 lam5n4 ) ( * 1 lam5n12 ) ( * ( - 1 ) lam5n13 ) ( * Nl107CT1 lam5n14 ) ( * Nl107CT2 lam5n15 ) ( - 1 ) ) 0 ) ( = ( + ( * 1 lam5n5 ) ( * Nl107a_203^01 lam5n14 ) ( * Nl107a_203^02 lam5n15 ) ) 0 ) ( = ( + ( * 1 lam5n6 ) ( * Nl107h_32^01 lam5n14 ) ( * Nl107h_32^02 lam5n15 ) ) 0 ) ( = ( + ( * Nl107i_27^01 lam5n14 ) ( * Nl107i_27^02 lam5n15 ) ) 0 ) ( = ( + ( * ( - 1 ) lam5n1 ) ( * Nl107i_30^01 lam5n14 ) ( * Nl107i_30^02 lam5n15 ) ) 0 ) ( = ( + ( * 1 lam5n13 ) ( * Nl107l_188^01 lam5n14 ) ( * Nl107l_188^02 lam5n15 ) ) 0 ) ( = ( + ( * 1 lam5n1 ) ( * Nl107l_29^01 lam5n14 ) ( * Nl107l_29^02 lam5n15 ) ) 0 ) ( = ( + ( * ( - 1 ) lam5n2 ) ( * Nl107l_69^01 lam5n14 ) ( * Nl107l_69^02 lam5n15 ) ) 0 ) ( = ( + ( * Nl107tp_35^01 lam5n14 ) ( * Nl107tp_35^02 lam5n15 ) ) 0 ) ( = ( * ( - 1 ) lam5n3 ) 0 ) ( = ( + ( * ( - 1 ) lam5n5 ) ( * 1 lam5n12 ) ) 0 ) ( = ( + ( * 1 lam5n7 ) ( * 1 lam5n8 ) ) 0 ) ( = ( * ( - 1 ) lam5n8 ) 0 ) ( = ( * ( - 1 ) lam5n12 ) 0 ) ( = ( + ( * 1 lam5n9 ) ( * 1 lam5n10 ) ) 0 ) ( = ( + ( * ( - 1 ) lam5n4 ) ( * ( - 1 ) lam5n9 ) ) 0 ) ( = ( + ( * ( - 1 ) lam5n10 ) ( * 1 lam5n11 ) ) 0 ) ( = ( + ( * ( - 1 ) lam5n6 ) ( * ( - 1 ) lam5n11 ) ) 0 ) ) ( and ( >= lam6n0 0 ) ( >= lam6n1 0 ) ( >= lam6n2 0 ) ( >= lam6n3 0 ) ( >= lam6n4 0 ) ( >= lam6n14 0 ) ( >= lam6n15 0 ) ( > ( + ( * 1 lam6n3 ) ( * 1 lam6n4 ) ( * 1 lam6n12 ) ( * ( - 1 ) lam6n13 ) ( * Nl107CT1 lam6n14 ) ( * Nl107CT2 lam6n15 ) 2 ) 0 ) ( = ( + ( * 1 lam6n5 ) ( * Nl107a_203^01 lam6n14 ) ( * Nl107a_203^02 lam6n15 ) ) 0 ) ( = ( + ( * 1 lam6n6 ) ( * Nl107h_32^01 lam6n14 ) ( * Nl107h_32^02 lam6n15 ) ) 0 ) ( = ( + ( * Nl107i_27^01 lam6n14 ) ( * Nl107i_27^02 lam6n15 ) ( - 1 ) ) 0 ) ( = ( + ( * ( - 1 ) lam6n1 ) ( * Nl107i_30^01 lam6n14 ) ( * Nl107i_30^02 lam6n15 ) ) 0 ) ( = ( + ( * 1 lam6n13 ) ( * Nl107l_188^01 lam6n14 ) ( * Nl107l_188^02 lam6n15 ) ) 0 ) ( = ( + ( * 1 lam6n1 ) ( * Nl107l_29^01 lam6n14 ) ( * Nl107l_29^02 lam6n15 ) ) 0 ) ( = ( + ( * ( - 1 ) lam6n2 ) ( * Nl107l_69^01 lam6n14 ) ( * Nl107l_69^02 lam6n15 ) ) 0 ) ( = ( + ( * Nl107tp_35^01 lam6n14 ) ( * Nl107tp_35^02 lam6n15 ) ) 0 ) ( = ( * ( - 1 ) lam6n3 ) 0 ) ( = ( + ( * ( - 1 ) lam6n5 ) ( * 1 lam6n12 ) ) 0 ) ( = ( + ( * 1 lam6n7 ) ( * 1 lam6n8 ) ) 0 ) ( = ( * ( - 1 ) lam6n8 ) 0 ) ( = ( * ( - 1 ) lam6n12 ) 0 ) ( = ( + ( * 1 lam6n9 ) ( * 1 lam6n10 ) ) 0 ) ( = ( + ( * ( - 1 ) lam6n4 ) ( * ( - 1 ) lam6n9 ) ( - 1 ) ) 0 ) ( = ( + ( * ( - 1 ) lam6n10 ) ( * 1 lam6n11 ) ) 0 ) ( = ( + ( * ( - 1 ) lam6n6 ) ( * ( - 1 ) lam6n11 ) ) 0 ) ) ) ( and ( and ( and ( >= lam3n0 0 ) ( >= lam3n1 0 ) ( >= lam3n2 0 ) ( >= lam3n3 0 ) ( > ( + ( * 1 lam3n0 ) ( * 1 lam3n1 ) ( * 1 lam3n2 ) ( * 2 lam3n3 ) ( * 1 lam3n16 ) ( * ( - 1 ) lam3n17 ) ( * ( - 1 ) lam3n18 ) ( - 1 ( + ( + ( + ( + Nl107CT1 ( * Nl107h_32^01 0 ) ) ( * Nl107i_30^01 0 ) ) ( * Nl107l_29^01 0 ) ) ( * Nl107tp_35^01 0 ) ) ) ) 0 ) ( = ( - ( + 0 Nl107a_203^01 ) ) 0 ) ( = ( + ( * ( - 1 ) lam3n3 ) ( - ( + 0 Nl107i_27^01 ) ) ) 0 ) ( = ( + ( * ( - 1 ) lam3n0 ) ( - ( + 0 Nl107l_188^01 ) ) ) 0 ) ( = ( + ( * 1 lam3n17 ) ( - ( + 0 Nl107l_69^01 ) ) ) 0 ) ( = ( * 1 lam3n4 ) 0 ) ( = ( * 1 lam3n5 ) 0 ) ( = ( + ( * ( - 1 ) lam3n1 ) ( * ( - 1 ) lam3n2 ) ( * 1 lam3n6 ) ( * 1 lam3n7 ) ( - ( + 0 ( * Nl107l_29^01 1 ) ) ) ) 0 ) ( = ( + ( * ( - 1 ) lam3n6 ) ( * 1 lam3n8 ) ) 0 ) ( = ( * ( - 1 ) lam3n8 ) 0 ) ( = ( + ( * 1 lam3n1 ) ( * 1 lam3n16 ) ) 0 ) ( = ( + ( * 1 lam3n9 ) ( * 1 lam3n10 ) ) 0 ) ( = ( + ( * ( - 1 ) lam3n3 ) ( * ( - 1 ) lam3n9 ) ) 0 ) ( = ( + ( * ( - 1 ) lam3n10 ) ( * 1 lam3n11 ) ) 0 ) ( = ( * ( - 1 ) lam3n11 ) 0 ) ( = ( * 1 lam3n12 ) 0 ) ( = ( + ( * 1 lam3n13 ) ( * 1 lam3n14 ) ( - ( + 0 ( * Nl107h_32^01 1 ) ) ) ) 0 ) ( = ( + ( * ( - 1 ) lam3n12 ) ( * 1 lam3n18 ) ( - ( + 0 ( * Nl107i_30^01 1 ) ) ) ) 0 ) ( = ( + ( * 1 lam3n2 ) ( * ( - 1 ) lam3n18 ) ) 0 ) ( = ( * ( - 1 ) lam3n7 ) 0 ) ( = ( + ( * ( - 1 ) lam3n13 ) ( * 1 lam3n15 ) ) 0 ) ( = ( + ( * ( - 1 ) lam3n4 ) ( * ( - 1 ) lam3n14 ) ( * ( - 1 ) lam3n15 ) ) 0 ) ( = ( - ( + 0 ( * Nl107tp_35^01 1 ) ) ) 0 ) ( = ( * ( - 1 ) lam3n16 ) 0 ) ) ( and ( >= lam4n0 0 ) ( >= lam4n1 0 ) ( >= lam4n2 0 ) ( >= lam4n3 0 ) ( > ( + ( * 1 lam4n0 ) ( * 1 lam4n1 ) ( * 1 lam4n2 ) ( * 2 lam4n3 ) ( * 1 lam4n16 ) ( * ( - 1 ) lam4n17 ) ( * ( - 1 ) lam4n18 ) ( - 1 ( + ( + ( + ( + Nl107CT2 ( * Nl107h_32^02 0 ) ) ( * Nl107i_30^02 0 ) ) ( * Nl107l_29^02 0 ) ) ( * Nl107tp_35^02 0 ) ) ) ) 0 ) ( = ( - ( + 0 Nl107a_203^02 ) ) 0 ) ( = ( + ( * ( - 1 ) lam4n3 ) ( - ( + 0 Nl107i_27^02 ) ) ) 0 ) ( = ( + ( * ( - 1 ) lam4n0 ) ( - ( + 0 Nl107l_188^02 ) ) ) 0 ) ( = ( + ( * 1 lam4n17 ) ( - ( + 0 Nl107l_69^02 ) ) ) 0 ) ( = ( * 1 lam4n4 ) 0 ) ( = ( * 1 lam4n5 ) 0 ) ( = ( + ( * ( - 1 ) lam4n1 ) ( * ( - 1 ) lam4n2 ) ( * 1 lam4n6 ) ( * 1 lam4n7 ) ( - ( + 0 ( * Nl107l_29^02 1 ) ) ) ) 0 ) ( = ( + ( * ( - 1 ) lam4n6 ) ( * 1 lam4n8 ) ) 0 ) ( = ( * ( - 1 ) lam4n8 ) 0 ) ( = ( + ( * 1 lam4n1 ) ( * 1 lam4n16 ) ) 0 ) ( = ( + ( * 1 lam4n9 ) ( * 1 lam4n10 ) ) 0 ) ( = ( + ( * ( - 1 ) lam4n3 ) ( * ( - 1 ) lam4n9 ) ) 0 ) ( = ( + ( * ( - 1 ) lam4n10 ) ( * 1 lam4n11 ) ) 0 ) ( = ( * ( - 1 ) lam4n11 ) 0 ) ( = ( * 1 lam4n12 ) 0 ) ( = ( + ( * 1 lam4n13 ) ( * 1 lam4n14 ) ( - ( + 0 ( * Nl107h_32^02 1 ) ) ) ) 0 ) ( = ( + ( * ( - 1 ) lam4n12 ) ( * 1 lam4n18 ) ( - ( + 0 ( * Nl107i_30^02 1 ) ) ) ) 0 ) ( = ( + ( * 1 lam4n2 ) ( * ( - 1 ) lam4n18 ) ) 0 ) ( = ( * ( - 1 ) lam4n7 ) 0 ) ( = ( + ( * ( - 1 ) lam4n13 ) ( * 1 lam4n15 ) ) 0 ) ( = ( + ( * ( - 1 ) lam4n4 ) ( * ( - 1 ) lam4n14 ) ( * ( - 1 ) lam4n15 ) ) 0 ) ( = ( - ( + 0 ( * Nl107tp_35^02 1 ) ) ) 0 ) ( = ( * ( - 1 ) lam4n16 ) 0 ) ) ) ( and ( >= lam0n0 0 ) ( >= lam0n1 0 ) ( >= lam0n2 0 ) ( >= lam0n3 0 ) ( >= lam0n4 0 ) ( >= lam0n5 0 ) ( >= lam0n18 0 ) ( >= lam0n19 0 ) ( > ( + ( * 1 lam0n2 ) ( * 1 lam0n3 ) ( * 1 lam0n4 ) ( * 2 lam0n5 ) ( * 1 lam0n15 ) ( * 1 lam0n16 ) ( * 1 lam0n17 ) ( * Nl107CT1 lam0n18 ) ( * Nl107CT2 lam0n19 ) ( - 1 ) ) 0 ) ( = ( + ( * Nl107a_203^01 lam0n18 ) ( * Nl107a_203^02 lam0n19 ) ) 0 ) ( = ( + ( * Nl107h_32^01 lam0n18 ) ( * Nl107h_32^02 lam0n19 ) ) 0 ) ( = ( + ( * ( - 1 ) lam0n5 ) ( * Nl107i_27^01 lam0n18 ) ( * Nl107i_27^02 lam0n19 ) ) 0 ) ( = ( + ( * 1 lam0n2 ) ( * 1 lam0n15 ) ( * Nl107i_30^01 lam0n18 ) ( * Nl107i_30^02 lam0n19 ) ) 0 ) ( = ( + ( * ( - 1 ) lam0n3 ) ( * Nl107l_188^01 lam0n18 ) ( * Nl107l_188^02 lam0n19 ) ) 0 ) ( = ( + ( * ( - 1 ) lam0n2 ) ( * ( - 1 ) lam0n4 ) ( * 1 lam0n6 ) ( * Nl107l_29^01 lam0n18 ) ( * Nl107l_29^02 lam0n19 ) ) 0 ) ( = ( + ( * ( - 1 ) lam0n1 ) ( * 1 lam0n16 ) ( * Nl107l_69^01 lam0n18 ) ( * Nl107l_69^02 lam0n19 ) ) 0 ) ( = ( + ( * 1 lam0n7 ) ( * Nl107tp_35^01 lam0n18 ) ( * Nl107tp_35^02 lam0n19 ) ) 0 ) ( = ( + ( * 1 lam0n8 ) ( * 1 lam0n9 ) ) 0 ) ( = ( + ( * ( - 1 ) lam0n5 ) ( * ( - 1 ) lam0n8 ) ) 0 ) ( = ( + ( * ( - 1 ) lam0n9 ) ( * 1 lam0n10 ) ) 0 ) ( = ( * ( - 1 ) lam0n10 ) 0 ) ( = ( + ( * 1 lam0n11 ) ( * 1 lam0n12 ) ) 0 ) ( = ( + ( * 1 lam0n4 ) ( * 1 lam0n17 ) ) 0 ) ( = ( + ( * ( - 1 ) lam0n15 ) ( * ( - 1 ) lam0n17 ) ) 0 ) ( = ( + ( * 1 lam0n13 ) ( * ( - 1 ) lam0n16 ) ) 0 ) ( = ( * ( - 1 ) lam0n13 ) 0 ) ( = ( * ( - 1 ) lam0n6 ) 0 ) ( = ( + ( * ( - 1 ) lam0n11 ) ( * 1 lam0n14 ) ) 0 ) ( = ( + ( * ( - 1 ) lam0n7 ) ( * ( - 1 ) lam0n12 ) ( * ( - 1 ) lam0n14 ) ) 0 ) ) ) ))
(check-sat)
(exit)
